30
0   51   51
1   52   51
2   52   52
3   52   52
4   51   51
5   52   51
6   52   52
7   51   52
8   52   51
9   51   52
10   51   51
11   51   51
12   52   51
13   27   26
14   26   27
15   27   26
16   27   26
17   26   27
18   27   26
19   27   26
20   26   27
21   26   27
22   27   26
23   27   27
24   27   27
25   26   27
26   1   2
27   2   1
28   2   2
29   1   2
100
